costo = [10.0, 20.0, 10.0];
capacidad= [1000.0, 300.0, 500.0];
num_clientes = 4;
num_dias = 3 ;
num_plantas = 3;
G = 50;
pago = [100.0, 110.0, 95.0, 105.0];
demanda = [| 80.0, 110.0, 90.0 
           | 150.0, 98.0, 340.0 
           | 90.0, 20.0, 212.0 
           | 300.0, 210.0, 200.0 |];